c cksystemsgroup.github.io/unicorn
c CNF contains a total of 491 clauses.
c CNF contains a total of 117 variables.
c CNF clauses cover 1 bad states.
c Variable name mapping (17 names):
c   1: input[bit=0]
c   2: input[bit=0]
c   4: input[bit=1]
c   6: input[bit=1]
c   12: input[bit=2]
c   17: input[bit=2]
c   22: input[bit=3]
c   30: input[bit=3]
c   35: input[bit=4]
c   46: input[bit=4]
c   51: input[bit=5]
c   65: input[bit=5]
c   71: input[bit=6]
c   88: input[bit=6]
c   93: input[bit=7]
c   113: input[bit=7]
c   117: ?
p cnf 117 491
-1 -2 3 0
1 -3 0
2 -3 0
-4 -2 5 0
4 -5 0
2 -5 0
-1 -6 7 0
1 -7 0
6 -7 0
-8 0
5 7 8 -9 0
5 7 -8 9 0
5 -7 8 9 0
5 -7 -8 -9 0
-5 7 8 9 0
-5 7 -8 -9 0
-5 -7 8 -9 0
-5 -7 -8 9 0
-9 -10 0
9 10 0
-3 -10 11 0
3 -11 0
10 -11 0
-12 -2 13 0
12 -13 0
2 -13 0
-4 -6 14 0
4 -14 0
6 -14 0
5 7 -15 0
5 8 -15 0
-7 -8 15 0
7 8 -15 0
-5 -8 15 0
-5 -7 15 0
13 14 15 -16 0
13 14 -15 16 0
13 -14 15 16 0
13 -14 -15 -16 0
-13 14 15 16 0
-13 14 -15 -16 0
-13 -14 15 -16 0
-13 -14 -15 16 0
-1 -17 18 0
1 -18 0
17 -18 0
-19 0
16 18 19 -20 0
16 18 -19 20 0
16 -18 19 20 0
16 -18 -19 -20 0
-16 18 19 20 0
-16 18 -19 -20 0
-16 -18 19 -20 0
-16 -18 -19 20 0
-11 -20 21 0
11 -21 0
20 -21 0
-22 -2 23 0
22 -23 0
2 -23 0
-12 -6 24 0
12 -24 0
6 -24 0
13 14 -25 0
13 15 -25 0
-14 -15 25 0
14 15 -25 0
-13 -15 25 0
-13 -14 25 0
23 24 25 -26 0
23 24 -25 26 0
23 -24 25 26 0
23 -24 -25 -26 0
-23 24 25 26 0
-23 24 -25 -26 0
-23 -24 25 -26 0
-23 -24 -25 26 0
-4 -17 27 0
4 -27 0
17 -27 0
16 18 -28 0
16 19 -28 0
-18 -19 28 0
18 19 -28 0
-16 -19 28 0
-16 -18 28 0
26 27 28 -29 0
26 27 -28 29 0
26 -27 28 29 0
26 -27 -28 -29 0
-26 27 28 29 0
-26 27 -28 -29 0
-26 -27 28 -29 0
-26 -27 -28 29 0
-1 -30 31 0
1 -31 0
30 -31 0
-32 0
29 31 32 -33 0
29 31 -32 33 0
29 -31 32 33 0
29 -31 -32 -33 0
-29 31 32 33 0
-29 31 -32 -33 0
-29 -31 32 -33 0
-29 -31 -32 33 0
-21 -33 34 0
21 -34 0
33 -34 0
-35 -2 36 0
35 -36 0
2 -36 0
-22 -6 37 0
22 -37 0
6 -37 0
23 24 -38 0
23 25 -38 0
-24 -25 38 0
24 25 -38 0
-23 -25 38 0
-23 -24 38 0
36 37 38 -39 0
36 37 -38 39 0
36 -37 38 39 0
36 -37 -38 -39 0
-36 37 38 39 0
-36 37 -38 -39 0
-36 -37 38 -39 0
-36 -37 -38 39 0
-12 -17 40 0
12 -40 0
17 -40 0
26 27 -41 0
26 28 -41 0
-27 -28 41 0
27 28 -41 0
-26 -28 41 0
-26 -27 41 0
39 40 41 -42 0
39 40 -41 42 0
39 -40 41 42 0
39 -40 -41 -42 0
-39 40 41 42 0
-39 40 -41 -42 0
-39 -40 41 -42 0
-39 -40 -41 42 0
-4 -30 43 0
4 -43 0
30 -43 0
29 31 -44 0
29 32 -44 0
-31 -32 44 0
31 32 -44 0
-29 -32 44 0
-29 -31 44 0
42 43 44 -45 0
42 43 -44 45 0
42 -43 44 45 0
42 -43 -44 -45 0
-42 43 44 45 0
-42 43 -44 -45 0
-42 -43 44 -45 0
-42 -43 -44 45 0
-1 -46 47 0
1 -47 0
46 -47 0
-48 0
45 47 48 -49 0
45 47 -48 49 0
45 -47 48 49 0
45 -47 -48 -49 0
-45 47 48 49 0
-45 47 -48 -49 0
-45 -47 48 -49 0
-45 -47 -48 49 0
-34 -49 50 0
34 -50 0
49 -50 0
-51 -2 52 0
51 -52 0
2 -52 0
-35 -6 53 0
35 -53 0
6 -53 0
36 37 -54 0
36 38 -54 0
-37 -38 54 0
37 38 -54 0
-36 -38 54 0
-36 -37 54 0
52 53 54 -55 0
52 53 -54 55 0
52 -53 54 55 0
52 -53 -54 -55 0
-52 53 54 55 0
-52 53 -54 -55 0
-52 -53 54 -55 0
-52 -53 -54 55 0
-22 -17 56 0
22 -56 0
17 -56 0
39 40 -57 0
39 41 -57 0
-40 -41 57 0
40 41 -57 0
-39 -41 57 0
-39 -40 57 0
55 56 57 -58 0
55 56 -57 58 0
55 -56 57 58 0
55 -56 -57 -58 0
-55 56 57 58 0
-55 56 -57 -58 0
-55 -56 57 -58 0
-55 -56 -57 58 0
-12 -30 59 0
12 -59 0
30 -59 0
42 43 -60 0
42 44 -60 0
-43 -44 60 0
43 44 -60 0
-42 -44 60 0
-42 -43 60 0
58 59 60 -61 0
58 59 -60 61 0
58 -59 60 61 0
58 -59 -60 -61 0
-58 59 60 61 0
-58 59 -60 -61 0
-58 -59 60 -61 0
-58 -59 -60 61 0
-4 -46 62 0
4 -62 0
46 -62 0
45 47 -63 0
45 48 -63 0
-47 -48 63 0
47 48 -63 0
-45 -48 63 0
-45 -47 63 0
61 62 63 -64 0
61 62 -63 64 0
61 -62 63 64 0
61 -62 -63 -64 0
-61 62 63 64 0
-61 62 -63 -64 0
-61 -62 63 -64 0
-61 -62 -63 64 0
-1 -65 66 0
1 -66 0
65 -66 0
-67 0
64 66 67 -68 0
64 66 -67 68 0
64 -66 67 68 0
64 -66 -67 -68 0
-64 66 67 68 0
-64 66 -67 -68 0
-64 -66 67 -68 0
-64 -66 -67 68 0
-68 -69 0
68 69 0
-50 -69 70 0
50 -70 0
69 -70 0
-71 -2 72 0
71 -72 0
2 -72 0
-51 -6 73 0
51 -73 0
6 -73 0
52 53 -74 0
52 54 -74 0
-53 -54 74 0
53 54 -74 0
-52 -54 74 0
-52 -53 74 0
72 73 74 -75 0
72 73 -74 75 0
72 -73 74 75 0
72 -73 -74 -75 0
-72 73 74 75 0
-72 73 -74 -75 0
-72 -73 74 -75 0
-72 -73 -74 75 0
-35 -17 76 0
35 -76 0
17 -76 0
55 56 -77 0
55 57 -77 0
-56 -57 77 0
56 57 -77 0
-55 -57 77 0
-55 -56 77 0
75 76 77 -78 0
75 76 -77 78 0
75 -76 77 78 0
75 -76 -77 -78 0
-75 76 77 78 0
-75 76 -77 -78 0
-75 -76 77 -78 0
-75 -76 -77 78 0
-22 -30 79 0
22 -79 0
30 -79 0
58 59 -80 0
58 60 -80 0
-59 -60 80 0
59 60 -80 0
-58 -60 80 0
-58 -59 80 0
78 79 80 -81 0
78 79 -80 81 0
78 -79 80 81 0
78 -79 -80 -81 0
-78 79 80 81 0
-78 79 -80 -81 0
-78 -79 80 -81 0
-78 -79 -80 81 0
-12 -46 82 0
12 -82 0
46 -82 0
61 62 -83 0
61 63 -83 0
-62 -63 83 0
62 63 -83 0
-61 -63 83 0
-61 -62 83 0
81 82 83 -84 0
81 82 -83 84 0
81 -82 83 84 0
81 -82 -83 -84 0
-81 82 83 84 0
-81 82 -83 -84 0
-81 -82 83 -84 0
-81 -82 -83 84 0
-4 -65 85 0
4 -85 0
65 -85 0
64 66 -86 0
64 67 -86 0
-66 -67 86 0
66 67 -86 0
-64 -67 86 0
-64 -66 86 0
84 85 86 -87 0
84 85 -86 87 0
84 -85 86 87 0
84 -85 -86 -87 0
-84 85 86 87 0
-84 85 -86 -87 0
-84 -85 86 -87 0
-84 -85 -86 87 0
-1 -88 89 0
1 -89 0
88 -89 0
-90 0
87 89 90 -91 0
87 89 -90 91 0
87 -89 90 91 0
87 -89 -90 -91 0
-87 89 90 91 0
-87 89 -90 -91 0
-87 -89 90 -91 0
-87 -89 -90 91 0
-70 -91 92 0
70 -92 0
91 -92 0
-93 -2 94 0
93 -94 0
2 -94 0
-71 -6 95 0
71 -95 0
6 -95 0
72 73 -96 0
72 74 -96 0
-73 -74 96 0
73 74 -96 0
-72 -74 96 0
-72 -73 96 0
94 95 96 -97 0
94 95 -96 97 0
94 -95 96 97 0
94 -95 -96 -97 0
-94 95 96 97 0
-94 95 -96 -97 0
-94 -95 96 -97 0
-94 -95 -96 97 0
-51 -17 98 0
51 -98 0
17 -98 0
75 76 -99 0
75 77 -99 0
-76 -77 99 0
76 77 -99 0
-75 -77 99 0
-75 -76 99 0
97 98 99 -100 0
97 98 -99 100 0
97 -98 99 100 0
97 -98 -99 -100 0
-97 98 99 100 0
-97 98 -99 -100 0
-97 -98 99 -100 0
-97 -98 -99 100 0
-35 -30 101 0
35 -101 0
30 -101 0
78 79 -102 0
78 80 -102 0
-79 -80 102 0
79 80 -102 0
-78 -80 102 0
-78 -79 102 0
100 101 102 -103 0
100 101 -102 103 0
100 -101 102 103 0
100 -101 -102 -103 0
-100 101 102 103 0
-100 101 -102 -103 0
-100 -101 102 -103 0
-100 -101 -102 103 0
-22 -46 104 0
22 -104 0
46 -104 0
81 82 -105 0
81 83 -105 0
-82 -83 105 0
82 83 -105 0
-81 -83 105 0
-81 -82 105 0
103 104 105 -106 0
103 104 -105 106 0
103 -104 105 106 0
103 -104 -105 -106 0
-103 104 105 106 0
-103 104 -105 -106 0
-103 -104 105 -106 0
-103 -104 -105 106 0
-12 -65 107 0
12 -107 0
65 -107 0
84 85 -108 0
84 86 -108 0
-85 -86 108 0
85 86 -108 0
-84 -86 108 0
-84 -85 108 0
106 107 108 -109 0
106 107 -108 109 0
106 -107 108 109 0
106 -107 -108 -109 0
-106 107 108 109 0
-106 107 -108 -109 0
-106 -107 108 -109 0
-106 -107 -108 109 0
-4 -88 110 0
4 -110 0
88 -110 0
87 89 -111 0
87 90 -111 0
-89 -90 111 0
89 90 -111 0
-87 -90 111 0
-87 -89 111 0
109 110 111 -112 0
109 110 -111 112 0
109 -110 111 112 0
109 -110 -111 -112 0
-109 110 111 112 0
-109 110 -111 -112 0
-109 -110 111 -112 0
-109 -110 -111 112 0
-1 -113 114 0
1 -114 0
113 -114 0
-115 0
112 114 115 -116 0
112 114 -115 116 0
112 -114 115 116 0
112 -114 -115 -116 0
-112 114 115 116 0
-112 114 -115 -116 0
-112 -114 115 -116 0
-112 -114 -115 116 0
-92 -116 117 0
92 -117 0
116 -117 0
117 0
